(set-info :smt-lib-version 2.6)
(set-logic QF_SLIA)
(set-info :source |
Generated by: Andrew Reynolds
Generated on: 2018-04-25
Generator: Kudzu, converted to v2.6 by CVC4
Application: Symbolic Execution of Javascript
Target solver: Kaluza
Publications: "A symbolic execution framework for JavaScript" by P. Saxena, D. Akhawe, S. Hanna, F. Mao, S. McCamant, and D. Song, 2010.
|)
(set-info :license "https://creativecommons.org/licenses/by/4.0/")
(set-info :category "industrial")
(set-info :status unknown)



(declare-fun I0_20 () Int)
(declare-fun I0_6 () Int)
(declare-fun PCTEMP_LHS_1 () String)
(declare-fun PCTEMP_LHS_2 () Int)
(declare-fun PCTEMP_LHS_3 () Int)
(declare-fun PCTEMP_LHS_4 () Int)
(declare-fun T0_20 () String)
(declare-fun T0_6 () String)
(declare-fun T1_11 () String)
(declare-fun T1_12 () String)
(declare-fun T1_20 () String)
(declare-fun T1_5 () String)
(declare-fun T1_6 () String)
(declare-fun T2_11 () String)
(declare-fun T2_12 () String)
(declare-fun T2_20 () String)
(declare-fun T2_5 () String)
(declare-fun T2_6 () String)
(declare-fun T3_20 () String)
(declare-fun T3_6 () String)
(declare-fun T4_20 () String)
(declare-fun T4_6 () String)
(declare-fun T5_20 () String)
(declare-fun T5_6 () String)
(declare-fun T_11 () Bool)
(declare-fun T_12 () Bool)
(declare-fun T_2 () String)
(declare-fun T_4 () Bool)
(declare-fun T_5 () String)
(declare-fun T_6 () String)
(declare-fun T_SELECT_1 () Bool)
(declare-fun T_SELECT_4 () Bool)
(declare-fun T_b () Bool)
(declare-fun T_c () Bool)
(declare-fun T_d () Bool)
(declare-fun T_e () Bool)
(declare-fun T_f () Bool)
(declare-fun fffff () Int)
(declare-fun var_0xINPUT_101898 () String)
(assert (not (str.in_re PCTEMP_LHS_1 (re.++ (str.to_re "%") (str.to_re "h") (str.to_re "o") (str.to_re "s") (str.to_re "t") (str.to_re "%")))))
(assert (= PCTEMP_LHS_1 "//%host%/gadgets/makeRequest"))
(assert (= T_2 (str.++ T1_5 T2_5)))
(assert (= T2_5 "?refresh=3600&url=http%3A%2F%2Fwww.mylisty.net%2FListy%2Fhtml%2FUserManager.action%3Ftype%3Dnew_user%26sid%3D0.3725939378728331&httpMethod=GET&headers=&postData=&authz=&st=&contentType=DOM&numEntries=3&getSummaries=false&signOwner=true&signViewer=true&gadget=http%3A%2F%2Fwww.mylisty.net%2FListy%2Fgadget%2FMyListy.xml&container=ig&bypassSpecCache=0"))
(assert (= T1_5 PCTEMP_LHS_1))
(assert (= T_SELECT_1 (not (= PCTEMP_LHS_2 (- 1)))))
(assert (ite T_SELECT_1 (and (= PCTEMP_LHS_2 (+ I0_6 0)) (= T_2 (str.++ T0_6 T1_6)) (= I0_6 (str.len T4_6)) (= 0 (str.len T0_6)) (= T1_6 (str.++ T2_6 T3_6)) (= T2_6 (str.++ T4_6 T5_6)) (= T5_6 "//") (not (str.in_re T4_6 (re.++ (str.to_re "/") (str.to_re "/"))))) (and (= PCTEMP_LHS_2 (- 1)) (= T_2 (str.++ T0_6 T1_6)) (= 0 (str.len T0_6)) (not (str.in_re T1_6 (re.++ (str.to_re "/") (str.to_re "/")))))))
(assert (= T_4 (= PCTEMP_LHS_2 0)))
(assert T_4)
(assert (= T_5 (str.++ T1_11 T2_11)))
(assert (= T2_11 "?refresh=3600&url=http%3A%2F%2Fwww.mylisty.net%2FListy%2Fhtml%2FUserManager.action%3Ftype%3Dnew_user%26sid%3D0.3725939378728331&httpMethod=GET&headers=&postData=&authz=&st=&contentType=DOM&numEntries=3&getSummaries=false&signOwner=true&signViewer=true&gadget=http%3A%2F%2Fwww.mylisty.net%2FListy%2Fgadget%2FMyListy.xml&container=ig&bypassSpecCache=0"))
(assert (= T1_11 PCTEMP_LHS_1))
(assert (= T_6 (str.++ T1_12 T2_12)))
(assert (= T2_12 T_5))
(assert (= T1_12 "http:"))
(assert (< fffff PCTEMP_LHS_3))
(assert (= T_c (not T_b)))
(assert T_c)
(assert (= T_d (= "-" var_0xINPUT_101898)))
(assert (= T_e (not T_d)))
(assert T_e)
(assert (= T_f (= "" var_0xINPUT_101898)))
(assert T_f)
(assert (= T_SELECT_4 (not (= PCTEMP_LHS_4 (- 1)))))
(assert (ite T_SELECT_4 (and (= PCTEMP_LHS_4 (+ I0_20 0)) (= var_0xINPUT_101898 (str.++ T0_20 T1_20)) (= I0_20 (str.len T4_20)) (= 0 (str.len T0_20)) (= T1_20 (str.++ T2_20 T3_20)) (= T2_20 (str.++ T4_20 T5_20)) (= T5_20 "__utma=16886264.") (not (str.in_re T4_20 (re.++ (str.to_re "_") (str.to_re "_") (str.to_re "u") (str.to_re "t") (str.to_re "m") (str.to_re "a") (str.to_re "=") (str.to_re "1") (str.to_re "6") (str.to_re "8") (str.to_re "8") (str.to_re "6") (str.to_re "2") (str.to_re "6") (str.to_re "4") (str.to_re "."))))) (and (= PCTEMP_LHS_4 (- 1)) (= var_0xINPUT_101898 (str.++ T0_20 T1_20)) (= 0 (str.len T0_20)) (not (str.in_re T1_20 (re.++ (str.to_re "_") (str.to_re "_") (str.to_re "u") (str.to_re "t") (str.to_re "m") (str.to_re "a") (str.to_re "=") (str.to_re "1") (str.to_re "6") (str.to_re "8") (str.to_re "8") (str.to_re "6") (str.to_re "2") (str.to_re "6") (str.to_re "4") (str.to_re ".")))))))
(assert (= T_11 (< (- 1) PCTEMP_LHS_4)))
(assert (= T_12 (not T_11)))
(assert T_12)
(check-sat)

